# Objective value = 2.9898145761288833e+02
x[0] 0
x[1] 0
x[2] 1
x[3] 1
x[4] 1
x[5] 0
x[6] 1
x[7] 0
x[8] 1
x[9] 1
x[10] 1
x[11] 1
x[12] 1
x[13] 1
x[14] 1
x[15] 1
x[16] 1
x[17] 9.9999992861013709e-01
x[18] 0
x[19] 7.4620807690936546e-08
x[20] 0
x[21] 1
x[22] 1
x[23] 9.9999985388694090e-01
x[24] 0
x[25] 1
x[26] 0
x[27] 1
x[28] 1
x[29] 0
x[30] 1
x[31] 0
x[32] 9.9999992861013687e-01
x[33] 0
x[34] 1
x[35] 1
x[36] 1.4933777561226505e-07
x[37] 1
x[38] 1.4938187944699386e-07
x[39] 1
x[40] 1
x[41] 0
x[42] 7.4361098879715010e-08
x[43] 9.9999985388694057e-01
x[44] 1
x[45] 0
x[46] 1
x[47] 1
x[48] 1
x[49] 0
x[50] 9.9999992861013687e-01
x[51] 1
x[52] 1
x[53] 0
x[54] 1
x[55] 1
x[56] 9.9999992861013687e-01
x[57] 0
x[58] 0
x[59] 0
x[60] 0
x[61] 7.2468662644270614e-08
x[62] 1
x[63] 0
x[64] 0
x[65] 9.9999992861013709e-01
x[66] 0
x[67] 1
x[68] 1
x[69] 0
x[70] 1
x[71] 0
x[72] 1
x[73] 0
x[74] 0
x[75] 1
x[76] 0
x[77] 1
x[78] 0
x[79] 0
x[80] 9.9999985388694057e-01
x[81] 0
x[82] 0
x[83] 1
x[84] 0
x[85] 0
x[86] 1
x[87] 1
x[88] 1
x[89] 0
x[90] 0
x[91] 0
x[92] 0
x[93] 0
x[94] 0
x[95] 1
x[96] 1
x[97] 1
x[98] 0
x[99] 1
x[100] 1
x[101] 0
x[102] 1
x[103] 0
x[104] 1
x[105] 1
x[106] 0
x[107] 0
x[108] 0
x[109] 0
x[110] 1
x[111] 0
x[112] 0
x[113] 0
x[114] 0
x[115] 1
x[116] 0
x[117] 1
x[118] 7.4658440158261489e-08
x[119] 0
x[120] 0
x[121] 0
x[122] 9.9999985388694057e-01
x[123] 1
x[124] 0
x[125] 0
x[126] 7.4644497344759370e-08
x[127] 1
x[128] 1
x[129] 1
x[130] 0
x[131] 0
x[132] 0
x[133] 1
x[134] 0
x[135] 1
x[136] 0
x[137] 0
x[138] 1
x[139] 0
x[140] 9.9999992861013687e-01
x[141] 0
x[142] 7.46254574278947e-08
x[143] 0
x[144] 1.4934146668003996e-07
x[145] 0
x[146] 1
x[147] 0
x[148] 0
x[149] 0
x[150] 9.9999992861013709e-01
x[151] 1
x[152] 1
x[153] 1
x[154] 0
x[155] 0
x[156] 0
x[157] 0
x[158] 0
x[159] 9.9999992861013687e-01
x[160] 0
x[161] 0
x[162] 0
x[163] 1
x[164] 0
x[165] 0
x[166] 1
x[167] 0
x[168] 0
x[169] 1
x[170] 1
x[171] 0
x[172] 1
x[173] 1
x[174] 0
x[175] 0
x[176] 7.4645252013837930e-08
x[177] 1
x[178] 1
x[179] 1
x[180] 1
x[181] 1
x[182] 1
x[183] 0
x[184] 9.9999985388694079e-01
x[185] 1
x[186] 1
x[187] 1.4907004447328667e-07
x[188] 1
x[189] 0
x[190] 1
x[191] 1
x[192] 1
x[193] 0
x[194] 1
x[195] 1.4932399919262571e-07
x[196] 1
x[197] 1
x[198] 0
x[199] 1
x[200] 1
x[201] 0
x[202] 0
x[203] 1
x[204] 0
x[205] 1
x[206] 0
x[207] 0
x[208] 0
x[209] 1
x[210] 1
x[211] 1
x[212] 1
x[213] 1
x[214] 1
x[215] 0
x[216] 0
x[217] 0
x[218] 0
x[219] 0
x[220] 0
x[221] 9.9999985055360718e-01
x[222] 1.4923223278837657e-07
x[223] 1
x[224] 1
x[225] 0
x[226] 0
x[227] 1
x[228] 1
x[229] 7.4657062806203687e-08
x[230] 0
x[231] 1
x[232] 7.4591095062770882e-08
x[233] 1
x[234] 1
x[235] 1
x[236] 1
x[237] 0
x[238] 1
x[239] 1
x[240] 0
x[241] 1
x[242] 0
x[243] 0
x[244] 0
x[245] 0
x[246] 1
x[247] 9.9999985388694057e-01
x[248] 0
x[249] 0
x[250] 0
x[251] 0
x[252] 1
x[253] 0
x[254] 0
x[255] 0
x[256] 0
x[257] 1
x[258] 1
x[259] 0
x[260] 1
x[261] 1
x[262] 1
x[263] 0
x[264] 9.9999992861013709e-01
x[265] 0
x[266] 1
x[267] 1.4907050286943093e-07
x[268] 0
x[269] 1.4936142863737776e-07
x[270] 0
x[271] 0
x[272] 1
x[273] 1
x[274] 0
x[275] 1.4934204781209170e-07
x[276] 0
x[277] 1
x[278] 0
x[279] 1
x[280] 0
x[281] 1
x[282] 0
x[283] 1
x[284] 1
x[285] 0
x[286] 0
x[287] 1
x[288] 0
x[289] 0
x[290] 1
x[291] 0
x[292] 1
x[293] 0
x[294] 1
x[295] 1
x[296] 0
x[297] 1
x[298] 0
x[299] 0
x[300] 0
x[301] 1
x[302] 1
x[303] 0
x[304] 1
x[305] 0
x[306] 0
x[307] 0
x[308] 1
x[309] 9.9999992861013709e-01
x[310] 1
x[311] 0
x[312] 1
x[313] 1
x[314] 0
x[315] 1
x[316] 0
x[317] 0
x[318] 0
x[319] 0
x[320] 0
x[321] 1
x[322] 1
x[323] 0
x[324] 1
x[325] 1
x[326] 0
x[327] 0
x[328] 0
x[329] 1
x[330] 1.4937899461229117e-07
x[331] 1
x[332] 0
x[333] 1
x[334] 1
x[335] 7.4621448097566483e-08
x[336] 0
x[337] 1
x[338] 0
x[339] 1.4938180894577766e-07
x[340] 9.9999985395433877e-01
x[341] 0
x[342] 1
x[343] 1
x[344] 1
x[345] 0
x[346] 0
x[347] 1
x[348] 0
x[349] 1
x[350] 0
x[351] 1
x[352] 0
x[353] 0
x[354] 0
x[355] 1.4936672647359007e-07
x[356] 0
x[357] 1
x[358] 1
x[359] 0
x[360] 0
x[361] 1
x[362] 1
x[363] 1
x[364] 0
x[365] 1.4929414392294947e-07
x[366] 0
x[367] 9.9999992861013709e-01
x[368] 1
x[369] 7.4563514643867055e-08
x[370] 0
x[371] 1
x[372] 1.4937219463873816e-07
x[373] 0
x[374] 0
x[375] 1.4929431652882911e-07
x[376] 0
x[377] 1
x[378] 9.9999985396113877e-01
x[379] 1
x[380] 0
x[381] 1
x[382] 1
x[383] 1
x[384] 0
x[385] 1
x[386] 1
x[387] 1
x[388] 0
x[389] 1
x[390] 0
x[391] 1
x[392] 0
x[393] 0
x[394] 1
x[395] 1
x[396] 0
x[397] 0
x[398] 1.0000002986865564e+00
x[399] 0
x[400] 0
x[401] 1.3985027570834697e-08
x[402] 0
x[403] 1.4929326720518719e-07
x[404] 1
x[405] 0
x[406] 1
x[407] 9.9999985388694079e-01
x[408] 0
x[409] 0
x[410] 1
x[411] 0
x[412] 1
x[413] 0
x[414] 1
x[415] 1
x[416] 1
x[417] 1
x[418] 1
x[419] 1
x[420] 0
x[421] 0
x[422] 1
x[423] 0
x[424] 1
x[425] 0
x[426] 1
x[427] 0
x[428] 1
x[429] 1.4923305343391060e-07
x[430] 1
x[431] 0
x[432] 1.4920936220786261e-07
x[433] 0
x[434] 1
x[435] 1
x[436] 0
x[437] 0
x[438] 1
x[439] 1
x[440] 0
x[441] 1
x[442] 0
x[443] 0
x[444] 0
x[445] 0
x[446] 1
x[447] 0
x[448] 0
x[449] 0
x[450] 1
x[451] 0
x[452] 0
x[453] 1
x[454] 0
x[455] 0
x[456] 9.9999985396660684e-01
x[457] 1
x[458] 9.9999985388694057e-01
x[459] 0
x[460] 1
x[461] 1
x[462] 1
x[463] 0
x[464] 0
x[465] 1
x[466] 1
x[467] 1
x[468] 0
x[469] 0
x[470] 0
x[471] 7.4605941407192492e-08
x[472] 9.9999992867489318e-01
x[473] 0
x[474] 1
x[475] 0
x[476] 1
x[477] 1.4934559961086306e-07
x[478] 0
x[479] 9.9999985388694057e-01
x[480] 0
x[481] 0
x[482] 0
x[483] 7.46383879700822e-08
x[484] 1
x[485] 1
x[486] 1
x[487] 0
x[488] 0
x[489] 0
x[490] 1
x[491] 0
x[492] 0
x[493] 9.9999985388694057e-01
x[494] 1
x[495] 9.9999985388694057e-01
x[496] 1
x[497] 9.9999992861013709e-01
x[498] 1
x[499] 9.9999992861013709e-01
x[500] 0
x[501] 1
x[502] 0
x[503] 0
x[504] 0
x[505] 0
x[506] 0
x[507] 0
x[508] 0
x[509] 1
x[510] 0
x[511] 9.9999985398773372e-01
x[512] 0
x[513] 1
x[514] 0
x[515] 0
x[516] 0
x[517] 1
x[518] 0
x[519] 1
x[520] 1
x[521] 9.9999985055360718e-01
x[522] 1
x[523] 0
x[524] 1.4919775925834929e-07
x[525] 0
x[526] 9.9999992527680348e-01
x[527] 0
x[528] 0
x[529] 0
x[530] 0
x[531] 1
x[532] 0
x[533] 1
x[534] 0
x[535] 1
x[536] 1
x[537] 0
x[538] 1
x[539] 0
x[540] 0
x[541] 1
x[542] 0
x[543] 0
x[544] 0
x[545] 0
x[546] 1
x[547] 0
x[548] 7.4629809641180935e-08
x[549] 1.4935714410176608e-07
x[550] 0
x[551] 0
x[552] 0
x[553] 1
x[554] 0
x[555] 1
x[556] 0
x[557] 1
x[558] 1
x[559] 0
x[560] 1
x[561] 0
x[562] 0
x[563] 0
x[564] 0
x[565] 1
x[566] 0
x[567] 1
x[568] -2.9399380614732078e-07
x[569] 1
x[570] 1.4920185658579223e-07
x[571] 0
x[572] 0
x[573] 1
x[574] 9.9999985388694079e-01
x[575] 0
x[576] 0
x[577] 0
x[578] 1
x[579] 1
x[580] 1
x[581] 1
x[582] 0
x[583] 0
x[584] 1
x[585] 1
x[586] 1
x[587] 1.4934987116584787e-07
x[588] 1
x[589] 1
x[590] 0
x[591] 1
x[592] 0
x[593] 1
x[594] 1
x[595] 0
x[596] 0
x[597] 1
x[598] 1
x[599] 1
x[600] 0
x[601] 0
x[602] 1
x[603] 0
x[604] 1
x[605] 0
x[606] 0
x[607] 1
x[608] 9.9999992861013687e-01
x[609] 9.9999985395145385e-01
x[610] 1
x[611] 0
x[612] 1
x[613] 0
x[614] 1
x[615] 1
x[616] 1
x[617] 0
x[618] 0
x[619] 0
x[620] 0
x[621] 1
x[622] 0
x[623] 0
x[624] 0
x[625] 1
x[626] 0
x[627] 0
x[628] 1.4930795276620452e-07
x[629] 1
x[630] 1.4931843770509784e-07
x[631] 1
x[632] 1
x[633] 0
x[634] 0
x[635] 0
x[636] 1
x[637] 0
x[638] 0
x[639] 1
x[640] 1
x[641] 1
x[642] 1
x[643] 0
x[644] 0
x[645] 9.9999985388694057e-01
x[646] 0
x[647] 0
x[648] 1
x[649] 0
x[650] 0
x[651] 1
x[652] 1
x[653] 0
x[654] 1
x[655] 1
x[656] 0
x[657] 1
x[658] 1
x[659] 0
x[660] 1
x[661] 1
x[662] 0
x[663] 0
x[664] 1
x[665] 1
x[666] 1.4937350892920696e-07
x[667] 0
x[668] 9.9999985055360718e-01
x[669] 0
x[670] 0
x[671] 1
x[672] 0
x[673] 0
x[674] 9.9999985388694057e-01
x[675] 0
x[676] 1
x[677] 1
x[678] 0
x[679] 1
x[680] 1
x[681] 0
x[682] 0
x[683] 0
x[684] 1
x[685] 0
x[686] 0
x[687] 1
x[688] 0
x[689] 1
x[690] 1
x[691] 0
x[692] 0
x[693] 1
x[694] 1
x[695] 1
x[696] 7.4652535879694333e-08
x[697] 9.9999992861013687e-01
x[698] 0
x[699] 7.4583737093037477e-08
x[700] 1
x[701] 1
x[702] 0
x[703] 0
x[704] 1
x[705] 0
x[706] 0
x[707] 0
x[708] 1.4932037523687096e-07
x[709] 1
x[710] 1
x[711] 1
x[712] 1
x[713] 0
x[714] 1
x[715] 1
x[716] 0
x[717] 1
x[718] 0
x[719] 1
x[720] 1.4937968397679460e-07
x[721] 0
x[722] 1
x[723] 9.9999985388694057e-01
x[724] 1
x[725] 1.4932227962975992e-07
x[726] 1
x[727] 9.9999985388694057e-01
x[728] 1
x[729] 0
x[730] 1
x[731] 0
x[732] 0
x[733] 0
x[734] 1
x[735] 1
x[736] 1
x[737] 0
x[738] 9.9999978083041030e-01
x[739] 1
x[740] 0
x[741] 0
x[742] 1
x[743] 1
x[744] 1
x[745] 0.999999850553607
x[746] 0
x[747] -2.9889278549044938e-07
x[748] 1
x[749] 0
x[750] 0
x[751] 0
x[752] 0
x[753] 0
x[754] 1
x[755] 1
x[756] 0
x[757] 7.4378928835045377e-08
x[758] 0
x[759] 0
x[760] 1
x[761] 1
x[762] 0
x[763] 1
x[764] 0
x[765] 1
x[766] 0
x[767] 0
x[768] 1
x[769] 9.9999985399128555e-01
x[770] 1
x[771] 0
x[772] 0
x[773] 9.9999992861013687e-01
x[774] 0
x[775] 1
x[776] 1
x[777] 1
x[778] 0
x[779] 0
x[780] 1
x[781] 1
x[782] 0
x[783] 0
x[784] 0
x[785] 9.9999985402538061e-01
x[786] 0
x[787] 0
x[788] 1.4931731297597670e-07
x[789] 0
x[790] 0
x[791] 1
x[792] 1
x[793] 1
x[794] 1
x[795] 0
x[796] 0
x[797] 0
x[798] 9.9999985397618918e-01
x[799] 1.4929559337736069e-07
x[800] 0
x[801] 1
x[802] 0
x[803] 1
x[804] 0
x[805] 0
x[806] 1
x[807] 0
x[808] 0
x[809] 1
x[810] 0
x[811] 7.4655458357657474e-08
x[812] 1
x[813] 1
x[814] 1
x[815] 1
x[816] 0
x[817] 1
x[818] 0
x[819] 0
x[820] 0
x[821] 1
x[822] 0
x[823] 1
x[824] 0
x[825] 0
x[826] 0
x[827] 1
x[828] 1.0000002177917311e+00
x[829] 9.9999992867627052e-01
x[830] 1
x[831] 0
x[832] 1
x[833] 0
x[834] 9.9999985397618918e-01
x[835] 1
x[836] 0
x[837] 0
x[838] 1
x[839] 1
x[840] 1
x[841] 1
x[842] 7.4639361565077712e-08
x[843] 1
x[844] 1
x[845] 9.9999985398346214e-01
x[846] 1.4937060966907048e-07
x[847] 1
x[848] 0
x[849] 1
x[850] 9.9999985398773372e-01
x[851] 1
x[852] 0
x[853] 0
x[854] 0
x[855] 1
x[856] 0
x[857] 0
x[858] 1
x[859] 7.4657591160839835e-08
x[860] 1
x[861] 1
x[862] 0
x[863] 9.9999985388694079e-01
x[864] 1
x[865] 7.45121723857823e-08
x[866] 1
x[867] 1
x[868] 1
x[869] 1
x[870] 0
x[871] 1
x[872] 0
x[873] 1
x[874] 1
x[875] 0
x[876] 1
x[877] 1
x[878] 1
x[879] 0
x[880] 1
x[881] 1
x[882] 9.9999985398773372e-01
x[883] 0
x[884] 1
x[885] 0
x[886] 0
x[887] 1
x[888] 9.9999985396113877e-01
x[889] 9.9999985174313655e-01
x[890] 0
x[891] 0
x[892] 0
x[893] 0
x[894] 0
x[895] 1
x[896] 1
x[897] 0
x[898] 1
x[899] 1
x[900] 1
x[901] 1
x[902] 1
x[903] 0
x[904] 1
x[905] 1
x[906] 9.9999985388694057e-01
x[907] 1
x[908] 1.0000004482312175e+00
x[909] 1
x[910] 0
x[911] 1
x[912] 0
x[913] 0
x[914] 0
x[915] 1
x[916] 1.4937395082189235e-07
x[917] 0
x[918] 1
x[919] 0
x[920] 1
x[921] 0
x[922] 1
x[923] 0
x[924] 1
x[925] 1
x[926] 1
x[927] 1
x[928] 1
x[929] 0
x[930] 1
x[931] 0
x[932] 1
x[933] 0
x[934] 0
x[935] 0
x[936] 0
x[937] 0
x[938] 0
x[939] 0
x[940] 1
x[941] 1
x[942] 1
x[943] 0
x[944] 0
x[945] 1
x[946] 0
x[947] 1
x[948] 1
x[949] 0
x[950] 1.0000002987524335e+00
x[951] 1
x[952] 0
x[953] 1
x[954] 0
x[955] 1
x[956] 1
x[957] 9.9999985390426493e-01
x[958] 1
x[959] 0
x[960] 0
x[961] 0
x[962] 0
x[963] 0
x[964] 0
x[965] 1
x[966] 1
x[967] 1
x[968] 0
x[969] 1
x[970] 0
x[971] 0
x[972] 1
x[973] 0
x[974] 0
x[975] 1
x[976] 0
x[977] 1
x[978] 0
x[979] 1
x[980] 0
x[981] 1
x[982] 1
x[983] 9.9999992527680348e-01
x[984] 0
x[985] 0
x[986] 0
x[987] 0
x[988] 0
x[989] 0
x[990] 1
x[991] 1
x[992] 0
x[993] 1.4933634381556139e-07
x[994] 9.9999992742744270e-01
x[995] 0
x[996] 0
x[997] 9.9999992869494536e-01
x[998] 1
x[999] 0
